language Essence 1.3
$ generated by bacp-gen.pl with seed 1963741053
$ edge probability 0.0938
$ course loads in range 2..3
letting n_courses be 143
letting n_periods be 28
letting load_per_period_lb be 3
letting load_per_period_ub be 40
letting courses_per_period_lb be 5
letting courses_per_period_ub be 9
letting course_load be function(
1 --> 3,
2 --> 3,
3 --> 2,
4 --> 2,
5 --> 2,
6 --> 2,
7 --> 2,
8 --> 2,
9 --> 3,
10 --> 2,
11 --> 2,
12 --> 3,
13 --> 3,
14 --> 2,
15 --> 2,
16 --> 2,
17 --> 2,
18 --> 3,
19 --> 3,
20 --> 2,
21 --> 2,
22 --> 2,
23 --> 2,
24 --> 2,
25 --> 2,
26 --> 3,
27 --> 2,
28 --> 2,
29 --> 2,
30 --> 2,
31 --> 3,
32 --> 2,
33 --> 2,
34 --> 2,
35 --> 2,
36 --> 2,
37 --> 2,
38 --> 3,
39 --> 2,
40 --> 3,
41 --> 2,
42 --> 3,
43 --> 3,
44 --> 3,
45 --> 2,
46 --> 3,
47 --> 3,
48 --> 2,
49 --> 2,
50 --> 2,
51 --> 2,
52 --> 2,
53 --> 2,
54 --> 3,
55 --> 3,
56 --> 3,
57 --> 2,
58 --> 3,
59 --> 2,
60 --> 3,
61 --> 2,
62 --> 3,
63 --> 2,
64 --> 2,
65 --> 2,
66 --> 3,
67 --> 2,
68 --> 3,
69 --> 2,
70 --> 2,
71 --> 2,
72 --> 2,
73 --> 3,
74 --> 2,
75 --> 2,
76 --> 2,
77 --> 2,
78 --> 3,
79 --> 2,
80 --> 3,
81 --> 2,
82 --> 2,
83 --> 2,
84 --> 3,
85 --> 2,
86 --> 2,
87 --> 3,
88 --> 3,
89 --> 2,
90 --> 3,
91 --> 2,
92 --> 2,
93 --> 2,
94 --> 3,
95 --> 3,
96 --> 2,
97 --> 3,
98 --> 3,
99 --> 2,
100 --> 3,
101 --> 3,
102 --> 2,
103 --> 2,
104 --> 2,
105 --> 2,
106 --> 2,
107 --> 2,
108 --> 2,
109 --> 3,
110 --> 3,
111 --> 2,
112 --> 3,
113 --> 3,
114 --> 2,
115 --> 2,
116 --> 2,
117 --> 3,
118 --> 2,
119 --> 2,
120 --> 2,
121 --> 3,
122 --> 3,
123 --> 2,
124 --> 2,
125 --> 2,
126 --> 3,
127 --> 2,
128 --> 2,
129 --> 3,
130 --> 3,
131 --> 2,
132 --> 2,
133 --> 3,
134 --> 3,
135 --> 3,
136 --> 2,
137 --> 2,
138 --> 2,
139 --> 2,
140 --> 2,
141 --> 2,
142 --> 3,
143 --> 2
)
letting prerequisite be relation (
(24,45),
(36,46),
(32,47),
(17,48),
(4,49),
(14,50),
(23,51),
(23,52),
(31,53),
(23,54),
(25,55),
(6,56),
(4,57),
(21,58),
(6,59),
(3,60),
(1,61),
(32,62),
(19,63),
(14,64),
(4,65),
(25,66),
(15,67),
(13,68),
(10,69),
(25,70),
(6,71),
(29,72),
(2,73),
(3,74),
(42,75),
(29,76),
(9,77),
(19,78),
(13,79),
(9,80),
(4,81),
(7,82),
(30,83),
(24,84),
(41,85),
(37,86),
(31,87),
(1,88),
(2,89),
(24,90),
(11,91),
(11,92),
(81,93),
(61,94),
(88,95),
(86,96),
(72,97),
(56,98),
(92,99),
(79,100),
(53,101),
(53,102),
(68,103),
(45,104),
(82,105),
(83,106),
(74,107),
(81,108),
(52,109),
(60,110),
(72,111),
(70,112),
(63,113),
(62,114),
(55,115),
(72,116),
(91,117),
(65,118),
(69,119),
(69,120),
(82,121),
(46,122),
(51,123),
(63,124),
(61,125),
(80,126),
(81,127),
(76,128),
(83,129),
(80,130),
(73,131),
(72,132),
(79,133),
(52,134),
(56,135),
(89,136),
(49,137),
(90,138),
(79,139),
(77,140),
(80,141),
(80,142),
(52,143),
(17,92),
(78,109),
(77,139),
(89,94),
(89,99),
(52,121),
(29,46),
(71,109),
(82,140),
(43,82),
(83,110),
(81,99),
(27,75),
(72,107),
(64,107),
(77,115),
(38,54),
(52,131),
(53,128),
(35,92),
(28,78),
(18,64),
(10,84),
(45,121),
(55,131),
(65,123),
(7,84),
(54,112),
(19,92),
(1,52),
(56,93),
(43,77),
(45,97),
(21,85),
(75,127),
(52,133),
(41,59),
(70,120),
(34,87),
(69,97),
(64,100),
(8,66),
(81,116),
(15,82),
(68,139),
(69,142),
(30,65),
(12,51),
(32,52),
(63,139),
(45,136),
(48,99),
(89,118),
(53,104),
(42,70),
(7,68),
(43,55),
(5,61),
(62,102),
(3,71),
(61,143),
(30,45),
(58,115),
(45,100),
(51,109),
(19,58),
(12,81),
(59,95),
(61,138),
(20,53),
(41,60),
(38,92),
(19,90),
(74,101),
(68,110),
(89,137),
(41,86),
(66,99),
(34,45),
(35,72),
(37,45),
(88,98),
(3,79),
(75,141),
(41,91),
(49,112),
(63,119),
(22,58),
(80,98),
(47,129),
(33,61),
(63,140),
(40,65),
(80,122),
(28,67),
(43,83),
(76,114),
(34,65),
(56,105),
(49,120),
(80,121),
(87,126),
(65,136),
(33,47),
(57,108),
(9,51),
(30,67),
(75,116),
(5,53),
(4,52),
(23,90),
(13,76),
(17,89),
(44,74),
(25,52),
(49,102),
(74,143),
(77,114),
(80,95),
(41,66),
(82,136),
(55,112),
(49,123),
(7,70),
(38,65),
(40,87),
(33,45),
(44,58),
(8,84),
(43,91),
(17,81),
(59,127),
(77,133),
(55,113),
(24,92),
(25,53),
(40,77),
(44,78),
(56,107),
(74,109),
(6,92),
(2,52),
(74,122),
(77,105),
(8,55),
(13,72),
(86,116),
(33,89),
(37,48),
(73,97),
(12,50),
(33,76),
(10,92),
(61,118),
(25,62),
(36,77),
(61,126),
(21,46),
(58,103),
(55,107),
(68,114),
(54,130),
(92,128),
(63,101),
(55,119),
(69,117),
(5,88),
(81,139),
(72,139),
(23,72),
(46,121),
(64,141),
(36,88),
(7,60),
(67,100),
(24,56),
(52,126),
(26,62),
(31,77),
(85,143),
(78,97),
(70,118),
(49,108),
(41,61),
(24,81),
(75,131),
(60,107),
(33,59),
(72,122),
(86,134),
(18,73),
(75,93),
(61,110),
(71,98),
(7,77),
(38,58),
(18,76),
(3,86),
(56,117),
(47,141),
(38,79),
(23,86),
(12,79),
(72,127),
(39,77),
(65,112),
(44,83),
(25,59),
(28,82),
(38,74),
(38,64),
(49,117),
(80,111),
(71,114),
(60,95),
(29,57),
(80,101),
(27,56),
(68,97),
(53,130),
(23,57),
(61,131),
(50,136),
(45,112),
(56,138),
(29,53),
(66,103),
(77,142),
(17,57),
(24,67),
(63,141),
(45,133),
(62,141),
(43,84),
(3,48),
(53,135),
(85,112),
(90,112),
(17,54),
(58,93),
(71,107),
(91,109),
(52,129),
(59,124),
(78,122),
(92,115),
(47,140),
(91,128),
(34,68),
(87,131),
(89,125),
(28,49),
(54,105),
(66,94),
(87,123),
(66,101),
(56,99),
(84,143),
(34,58),
(6,61),
(2,67),
(10,47),
(91,124),
(68,105),
(1,63),
(43,61),
(39,89),
(43,46),
(20,45),
(92,117),
(43,89),
(74,93),
(12,63),
(45,119),
(15,66),
(87,103),
(8,89),
(40,69),
(40,71),
(21,79),
(83,117),
(72,104),
(63,102),
(26,58),
(17,73),
(45,132),
(85,126),
(75,101),
(29,62),
(31,65),
(27,53),
(69,115),
(58,118),
(91,123),
(76,131),
(19,64),
(62,129),
(24,73),
(75,122),
(75,107),
(45,141),
(48,124),
(89,143),
(31,63),
(20,59),
(13,56),
(15,89),
(64,138),
(27,88),
(65,120),
(71,139),
(50,111),
(5,77),
(51,100),
(36,57),
(53,106),
(11,69),
(40,89),
(38,88),
(21,91),
(76,141),
(54,136),
(69,104),
(4,70),
(82,110),
(81,143),
(58,109),
(58,131)
)

